\Problem name: compact

Minimize
OBJROW: C
Subject To
ord(0,1):  x(0,1) - x(0,3) >= 7
ord(0,2):  - x(0,1) + x(0,2) >= 7
ord(0,3):  x(0,0) - x(0,2) >= 10
ord(1,1):  - x(1,1) + x(1,3) >= 6
ord(1,2):  x(1,2) - x(1,3) >= 9
ord(1,3):  x(1,0) - x(1,2) >= 1
ord(2,1):  - x(2,1) + x(2,2) >= 2
ord(2,2):  x(2,0) - x(2,2) >= 8
ord(2,3):  - x(2,0) + x(2,3) >= 3
triangle2(0,1,0):  y(0,1,0) + y(1,0,0) = 1
triangle2(0,1,1):  y(0,1,1) + y(1,0,1) = 1
triangle2(0,1,2):  y(0,1,2) + y(1,0,2) = 1
triangle2(0,1,3):  y(0,1,3) + y(1,0,3) = 1
triangle2(0,2,0):  y(0,2,0) + y(2,0,0) = 1
triangle2(0,2,1):  y(0,2,1) + y(2,0,1) = 1
triangle2(0,2,2):  y(0,2,2) + y(2,0,2) = 1
triangle2(0,2,3):  y(0,2,3) + y(2,0,3) = 1
triangle2(1,2,0):  y(1,2,0) + y(2,1,0) = 1
triangle2(1,2,1):  y(1,2,1) + y(2,1,1) = 1
triangle2(1,2,2):  y(1,2,2) + y(2,1,2) = 1
triangle2(1,2,3):  y(1,2,3) + y(2,1,3) = 1
MCLinV(0,1,0):  x(0,0) - v(0,1,0) - x(1,0) = 5
MCLinV(1,0,0):  - x(0,0) - v(1,0,0) + x(1,0) = 9
MCLin1(0,1,0):  u(0,1,0) >= -0
MCLin2(0,1,0):  -51 y(1,0,0) - u(0,1,0) <= -0
MCLin3(0,1,0):  45 y(1,0,0) + v(0,1,0) - u(0,1,0) <= 45
MCLin4(0,1,0):  45 y(1,0,0) - u(0,1,0) >= -0
MCLin5(0,1,0):  -51 y(1,0,0) + v(0,1,0) - u(0,1,0) >= -51
MCLin6(1,0,0):  u(1,0,0) >= -0
MCLin7(1,0,0):  -59 y(0,1,0) - u(1,0,0) <= -0
MCLin8(1,0,0):  37 y(0,1,0) + v(1,0,0) - u(1,0,0) <= 37
MCLin9(1,0,0):  37 y(0,1,0) - u(1,0,0) >= -0
MCLin10(1,0,0):  -59 y(0,1,0) + v(1,0,0) - u(1,0,0) >= -59
MCLinV(0,1,1):  x(0,1) - v(0,1,1) - x(1,1) = 6
MCLinV(1,0,1):  - x(0,1) - v(1,0,1) + x(1,1) = 7
MCLin1(0,1,1):  u(0,1,1) >= -0
MCLin2(0,1,1):  -53 y(1,0,1) - u(0,1,1) <= -0
MCLin3(0,1,1):  43 y(1,0,1) + v(0,1,1) - u(0,1,1) <= 43
MCLin4(0,1,1):  43 y(1,0,1) - u(0,1,1) >= -0
MCLin5(0,1,1):  -53 y(1,0,1) + v(0,1,1) - u(0,1,1) >= -53
MCLin6(1,0,1):  u(1,0,1) >= -0
MCLin7(1,0,1):  -56 y(0,1,1) - u(1,0,1) <= -0
MCLin8(1,0,1):  40 y(0,1,1) + v(1,0,1) - u(1,0,1) <= 40
MCLin9(1,0,1):  40 y(0,1,1) - u(1,0,1) >= -0
MCLin10(1,0,1):  -56 y(0,1,1) + v(1,0,1) - u(1,0,1) >= -56
MCLinV(0,1,2):  x(0,2) - v(0,1,2) - x(1,2) = 1
MCLinV(1,0,2):  - x(0,2) - v(1,0,2) + x(1,2) = 10
MCLin1(0,1,2):  u(0,1,2) >= -0
MCLin2(0,1,2):  -56 y(1,0,2) - u(0,1,2) <= -0
MCLin3(0,1,2):  40 y(1,0,2) + v(0,1,2) - u(0,1,2) <= 40
MCLin4(0,1,2):  40 y(1,0,2) - u(0,1,2) >= -0
MCLin5(0,1,2):  -56 y(1,0,2) + v(0,1,2) - u(0,1,2) >= -56
MCLin6(1,0,2):  u(1,0,2) >= -0
MCLin7(1,0,2):  -51 y(0,1,2) - u(1,0,2) <= -0
MCLin8(1,0,2):  45 y(0,1,2) + v(1,0,2) - u(1,0,2) <= 45
MCLin9(1,0,2):  45 y(0,1,2) - u(1,0,2) >= -0
MCLin10(1,0,2):  -51 y(0,1,2) + v(1,0,2) - u(1,0,2) >= -51
MCLinV(0,1,3):  x(0,3) - v(0,1,3) - x(1,3) = 9
MCLinV(1,0,3):  - x(0,3) - v(1,0,3) + x(1,3) = 7
MCLin1(0,1,3):  u(0,1,3) >= -0
MCLin2(0,1,3):  -69 y(1,0,3) - u(0,1,3) <= -0
MCLin3(0,1,3):  27 y(1,0,3) + v(0,1,3) - u(0,1,3) <= 27
MCLin4(0,1,3):  27 y(1,0,3) - u(0,1,3) >= -0
MCLin5(0,1,3):  -69 y(1,0,3) + v(0,1,3) - u(0,1,3) >= -69
MCLin6(1,0,3):  u(1,0,3) >= -0
MCLin7(1,0,3):  -43 y(0,1,3) - u(1,0,3) <= -0
MCLin8(1,0,3):  53 y(0,1,3) + v(1,0,3) - u(1,0,3) <= 53
MCLin9(1,0,3):  53 y(0,1,3) - u(1,0,3) >= -0
MCLin10(1,0,3):  -43 y(0,1,3) + v(1,0,3) - u(1,0,3) >= -43
MCLinV(0,2,0):  x(0,0) - v(0,2,0) - x(2,0) = 3
MCLinV(2,0,0):  - x(0,0) - v(2,0,0) + x(2,0) = 9
MCLin1(0,2,0):  u(0,2,0) >= -0
MCLin2(0,2,0):  -43 y(2,0,0) - u(0,2,0) <= -0
MCLin3(0,2,0):  53 y(2,0,0) + v(0,2,0) - u(0,2,0) <= 53
MCLin4(0,2,0):  53 y(2,0,0) - u(0,2,0) >= -0
MCLin5(0,2,0):  -43 y(2,0,0) + v(0,2,0) - u(0,2,0) >= -43
MCLin6(2,0,0):  u(2,0,0) >= -0
MCLin7(2,0,0):  -65 y(0,2,0) - u(2,0,0) <= -0
MCLin8(2,0,0):  31 y(0,2,0) + v(2,0,0) - u(2,0,0) <= 31
MCLin9(2,0,0):  31 y(0,2,0) - u(2,0,0) >= -0
MCLin10(2,0,0):  -65 y(0,2,0) + v(2,0,0) - u(2,0,0) >= -65
MCLinV(0,2,1):  x(0,1) - v(0,2,1) - x(2,1) = 2
MCLinV(2,0,1):  - x(0,1) - v(2,0,1) + x(2,1) = 7
MCLin1(0,2,1):  u(0,2,1) >= -0
MCLin2(0,2,1):  -49 y(2,0,1) - u(0,2,1) <= -0
MCLin3(0,2,1):  47 y(2,0,1) + v(0,2,1) - u(0,2,1) <= 47
MCLin4(0,2,1):  47 y(2,0,1) - u(0,2,1) >= -0
MCLin5(0,2,1):  -49 y(2,0,1) + v(0,2,1) - u(0,2,1) >= -49
MCLin6(2,0,1):  u(2,0,1) >= -0
MCLin7(2,0,1):  -56 y(0,2,1) - u(2,0,1) <= -0
MCLin8(2,0,1):  40 y(0,2,1) + v(2,0,1) - u(2,0,1) <= 40
MCLin9(2,0,1):  40 y(0,2,1) - u(2,0,1) >= -0
MCLin10(2,0,1):  -56 y(0,2,1) + v(2,0,1) - u(2,0,1) >= -56
MCLinV(0,2,2):  x(0,2) - v(0,2,2) - x(2,2) = 8
MCLinV(2,0,2):  - x(0,2) - v(2,0,2) + x(2,2) = 10
MCLin1(0,2,2):  u(0,2,2) >= -0
MCLin2(0,2,2):  -50 y(2,0,2) - u(0,2,2) <= -0
MCLin3(0,2,2):  46 y(2,0,2) + v(0,2,2) - u(0,2,2) <= 46
MCLin4(0,2,2):  46 y(2,0,2) - u(0,2,2) >= -0
MCLin5(0,2,2):  -50 y(2,0,2) + v(0,2,2) - u(0,2,2) >= -50
MCLin6(2,0,2):  u(2,0,2) >= -0
MCLin7(2,0,2):  -64 y(0,2,2) - u(2,0,2) <= -0
MCLin8(2,0,2):  32 y(0,2,2) + v(2,0,2) - u(2,0,2) <= 32
MCLin9(2,0,2):  32 y(0,2,2) - u(2,0,2) >= -0
MCLin10(2,0,2):  -64 y(0,2,2) + v(2,0,2) - u(2,0,2) >= -64
MCLinV(0,2,3):  x(0,3) - v(0,2,3) - x(2,3) = 8
MCLinV(2,0,3):  - x(0,3) - v(2,0,3) + x(2,3) = 7
MCLin1(0,2,3):  u(0,2,3) >= -0
MCLin2(0,2,3):  -75 y(2,0,3) - u(0,2,3) <= -0
MCLin3(0,2,3):  21 y(2,0,3) + v(0,2,3) - u(0,2,3) <= 21
MCLin4(0,2,3):  21 y(2,0,3) - u(0,2,3) >= -0
MCLin5(0,2,3):  -75 y(2,0,3) + v(0,2,3) - u(0,2,3) >= -75
MCLin6(2,0,3):  u(2,0,3) >= -0
MCLin7(2,0,3):  -36 y(0,2,3) - u(2,0,3) <= -0
MCLin8(2,0,3):  60 y(0,2,3) + v(2,0,3) - u(2,0,3) <= 60
MCLin9(2,0,3):  60 y(0,2,3) - u(2,0,3) >= -0
MCLin10(2,0,3):  -36 y(0,2,3) + v(2,0,3) - u(2,0,3) >= -36
MCLinV(1,2,0):  x(1,0) - v(1,2,0) - x(2,0) = 3
MCLinV(2,1,0):  - x(1,0) - v(2,1,0) + x(2,0) = 5
MCLin1(1,2,0):  u(1,2,0) >= -0
MCLin2(1,2,0):  -51 y(2,1,0) - u(1,2,0) <= -0
MCLin3(1,2,0):  57 y(2,1,0) + v(1,2,0) - u(1,2,0) <= 57
MCLin4(1,2,0):  57 y(2,1,0) - u(1,2,0) >= -0
MCLin5(1,2,0):  -51 y(2,1,0) + v(1,2,0) - u(1,2,0) >= -51
MCLin6(2,1,0):  u(2,1,0) >= -0
MCLin7(2,1,0):  -65 y(1,2,0) - u(2,1,0) <= -0
MCLin8(2,1,0):  43 y(1,2,0) + v(2,1,0) - u(2,1,0) <= 43
MCLin9(2,1,0):  43 y(1,2,0) - u(2,1,0) >= -0
MCLin10(2,1,0):  -65 y(1,2,0) + v(2,1,0) - u(2,1,0) >= -65
MCLinV(1,2,1):  x(1,1) - v(1,2,1) - x(2,1) = 2
MCLinV(2,1,1):  - x(1,1) - v(2,1,1) + x(2,1) = 6
MCLin1(1,2,1):  u(1,2,1) >= -0
MCLin2(1,2,1):  -56 y(2,1,1) - u(1,2,1) <= -0
MCLin3(1,2,1):  52 y(2,1,1) + v(1,2,1) - u(1,2,1) <= 52
MCLin4(1,2,1):  52 y(2,1,1) - u(1,2,1) >= -0
MCLin5(1,2,1):  -56 y(2,1,1) + v(1,2,1) - u(1,2,1) >= -56
MCLin6(2,1,1):  u(2,1,1) >= -0
MCLin7(2,1,1):  -60 y(1,2,1) - u(2,1,1) <= -0
MCLin8(2,1,1):  48 y(1,2,1) + v(2,1,1) - u(2,1,1) <= 48
MCLin9(2,1,1):  48 y(1,2,1) - u(2,1,1) >= -0
MCLin10(2,1,1):  -60 y(1,2,1) + v(2,1,1) - u(2,1,1) >= -60
MCLinV(1,2,2):  x(1,2) - v(1,2,2) - x(2,2) = 8
MCLinV(2,1,2):  - x(1,2) - v(2,1,2) + x(2,2) = 1
MCLin1(1,2,2):  u(1,2,2) >= -0
MCLin2(1,2,2):  -49 y(2,1,2) - u(1,2,2) <= -0
MCLin3(1,2,2):  59 y(2,1,2) + v(1,2,2) - u(1,2,2) <= 59
MCLin4(1,2,2):  59 y(2,1,2) - u(1,2,2) >= -0
MCLin5(1,2,2):  -49 y(2,1,2) + v(1,2,2) - u(1,2,2) >= -49
MCLin6(2,1,2):  u(2,1,2) >= -0
MCLin7(2,1,2):  -68 y(1,2,2) - u(2,1,2) <= -0
MCLin8(2,1,2):  40 y(1,2,2) + v(2,1,2) - u(2,1,2) <= 40
MCLin9(2,1,2):  40 y(1,2,2) - u(2,1,2) >= -0
MCLin10(2,1,2):  -68 y(1,2,2) + v(2,1,2) - u(2,1,2) >= -68
MCLinV(1,2,3):  x(1,3) - v(1,2,3) - x(2,3) = 8
MCLinV(2,1,3):  - x(1,3) - v(2,1,3) + x(2,3) = 9
MCLin1(1,2,3):  u(1,2,3) >= -0
MCLin2(1,2,3):  -69 y(2,1,3) - u(1,2,3) <= -0
MCLin3(1,2,3):  39 y(2,1,3) + v(1,2,3) - u(1,2,3) <= 39
MCLin4(1,2,3):  39 y(2,1,3) - u(1,2,3) >= -0
MCLin5(1,2,3):  -69 y(2,1,3) + v(1,2,3) - u(1,2,3) >= -69
MCLin6(2,1,3):  u(2,1,3) >= -0
MCLin7(2,1,3):  -56 y(1,2,3) - u(2,1,3) <= -0
MCLin8(2,1,3):  52 y(1,2,3) + v(2,1,3) - u(2,1,3) <= 52
MCLin9(2,1,3):  52 y(1,2,3) - u(2,1,3) >= -0
MCLin10(2,1,3):  -56 y(1,2,3) + v(2,1,3) - u(2,1,3) >= -56
makespan(0):  C - x(0,0) >= 9
makespan(1):  C - x(1,0) >= 5
makespan(2):  C - x(2,3) >= 8
cut_clique_0(012,1):  0.50000 x(1,1) + 0.16667 x(2,1) >= 1
cut_clique_0(012,2):  0.05172 x(0,2) + 0.01149 x(1,2) >= 1
cut_clique_0(012,3):  0.00302 x(0,3) + 0.01224 x(1,3) + 0.05714 x(2,3) >= 1
cut_clique_1(012,1):  0.12245 x(0,1) + 0.01020 x(1,1) + 0.01020 x(2,1) >= 1
cut_clique_0:  0.00922 x(0,0) + 0.00512 x(1,0) + 0.04355 x(0,2) >= 1
cut_clique_1:  0.10494 x(0,1) + 0.00750 x(2,1) + 0.00882 x(1,3) + 0.00617 x(2,3) >= 1
cut_clique_2:  0.00447 x(0,1) + 0.00032 x(2,1) + 0.01210 x(1,3) + 0.05497 x(2,3) >= 1
Bounds
 0 <= C <= 75
 24 <= x(0,0) <= 66
 0 <= y(0,1,0) <= 1
 0 <= y(1,0,0) <= 1
 -51 <= v(0,1,0) <= 45
 -59 <= v(1,0,0) <= 37
 -750 <= u(0,1,0)
 -750 <= u(1,0,0)
 0 <= y(0,2,0) <= 1
 0 <= y(2,0,0) <= 1
 -43 <= v(0,2,0) <= 53
 -65 <= v(2,0,0) <= 31
 -750 <= u(0,2,0)
 -750 <= u(2,0,0)
 16 <= x(1,0) <= 70
 0 <= y(1,2,0) <= 1
 0 <= y(2,1,0) <= 1
 -51 <= v(1,2,0) <= 57
 -65 <= v(2,1,0) <= 43
 -750 <= u(1,2,0)
 -750 <= u(2,1,0)
 10 <= x(2,0) <= 64
 7 <= x(0,1) <= 49
 0 <= y(0,1,1) <= 1
 0 <= y(1,0,1) <= 1
 -53 <= v(0,1,1) <= 43
 -56 <= v(1,0,1) <= 40
 -750 <= u(0,1,1)
 -750 <= u(1,0,1)
 0 <= y(0,2,1) <= 1
 0 <= y(2,0,1) <= 1
 -49 <= v(0,2,1) <= 47
 -56 <= v(2,0,1) <= 40
 -750 <= u(0,2,1)
 -750 <= u(2,0,1)
 0 <= x(1,1) <= 54
 0 <= y(1,2,1) <= 1
 0 <= y(2,1,1) <= 1
 -56 <= v(1,2,1) <= 52
 -60 <= v(2,1,1) <= 48
 -750 <= u(1,2,1)
 -750 <= u(2,1,1)
 0 <= x(2,1) <= 54
 14 <= x(0,2) <= 56
 0 <= y(0,1,2) <= 1
 0 <= y(1,0,2) <= 1
 -56 <= v(0,1,2) <= 40
 -51 <= v(1,0,2) <= 45
 -750 <= u(0,1,2)
 -750 <= u(1,0,2)
 0 <= y(0,2,2) <= 1
 0 <= y(2,0,2) <= 1
 -50 <= v(0,2,2) <= 46
 -64 <= v(2,0,2) <= 32
 -750 <= u(0,2,2)
 -750 <= u(2,0,2)
 15 <= x(1,2) <= 69
 0 <= y(1,2,2) <= 1
 0 <= y(2,1,2) <= 1
 -49 <= v(1,2,2) <= 59
 -68 <= v(2,1,2) <= 40
 -750 <= u(1,2,2)
 -750 <= u(2,1,2)
 2 <= x(2,2) <= 56
 0 <= x(0,3) <= 42
 0 <= y(0,1,3) <= 1
 0 <= y(1,0,3) <= 1
 -69 <= v(0,1,3) <= 27
 -43 <= v(1,0,3) <= 53
 -750 <= u(0,1,3)
 -750 <= u(1,0,3)
 0 <= y(0,2,3) <= 1
 0 <= y(2,0,3) <= 1
 -75 <= v(0,2,3) <= 21
 -36 <= v(2,0,3) <= 60
 -750 <= u(0,2,3)
 -750 <= u(2,0,3)
 6 <= x(1,3) <= 60
 0 <= y(1,2,3) <= 1
 0 <= y(2,1,3) <= 1
 -69 <= v(1,2,3) <= 39
 -56 <= v(2,1,3) <= 52
 -750 <= u(1,2,3)
 -750 <= u(2,1,3)
 13 <= x(2,3) <= 67
Integers
C x(0,0) y(0,1,0) y(1,0,0) v(0,1,0) v(1,0,0) u(0,1,0) u(1,0,0) y(0,2,0) y(2,0,0) 
v(0,2,0) v(2,0,0) u(0,2,0) u(2,0,0) x(1,0) y(1,2,0) y(2,1,0) v(1,2,0) v(2,1,0) u(1,2,0) 
u(2,1,0) x(2,0) x(0,1) y(0,1,1) y(1,0,1) v(0,1,1) v(1,0,1) u(0,1,1) u(1,0,1) y(0,2,1) 
y(2,0,1) v(0,2,1) v(2,0,1) u(0,2,1) u(2,0,1) x(1,1) y(1,2,1) y(2,1,1) v(1,2,1) v(2,1,1) 
u(1,2,1) u(2,1,1) x(2,1) x(0,2) y(0,1,2) y(1,0,2) v(0,1,2) v(1,0,2) u(0,1,2) u(1,0,2) 
y(0,2,2) y(2,0,2) v(0,2,2) v(2,0,2) u(0,2,2) u(2,0,2) x(1,2) y(1,2,2) y(2,1,2) v(1,2,2) 
v(2,1,2) u(1,2,2) u(2,1,2) x(2,2) x(0,3) y(0,1,3) y(1,0,3) v(0,1,3) v(1,0,3) u(0,1,3) 
u(1,0,3) y(0,2,3) y(2,0,3) v(0,2,3) v(2,0,3) u(0,2,3) u(2,0,3) x(1,3) y(1,2,3) y(2,1,3) 
v(1,2,3) v(2,1,3) u(1,2,3) u(2,1,3) x(2,3) 
End
